
45 21
41 26
44 35
25 38
24 42
18 40
13 40
4 50
18 54
22 60
25 62
7 64
2 99
41 94
37 84
51 67
54 62
58 69
71 71
74 78
87 76
83 69
64 60
68 58
71 44
83 46
91 38
82 7
62 32
58 35